ACTORES = {Actor1, Actor2, Actor3, Actor4, Actor5} ;

Escenas = [| 0, 0, 0, 0, 0, 0, 0, 0, 0, 1, 1, 1, 1,  5
| 0, 1, 0, 0, 0, 0, 1, 1, 0, 0, 0, 1, 0,   5
| 0, 0, 0, 0, 0, 0, 0, 0, 0, 0, 0, 0, 0,   40 
| 0, 0, 0, 0, 1, 0, 1, 1, 0, 0, 0, 0, 0,   4 
| 0, 0, 0, 0, 0, 1, 1, 1, 1, 0, 0, 0, 0,  20|]; 
           
Duracion = [2 , 1 , 1, 1, 1, 3, 1, 1, 1, 2, 1, 1, 2];